
;this file is automatically generated: Fri Jan 03 16:26:56 GMT 2020

;declarations generated

(declare-fun oclExcludes ( Int Int) Bool)
(declare-fun obj_1005e3a3_c76b_475e_8547_2453409a10b9 ( Int) Int)
(declare-fun Cardinality ( Int) Int)
(declare-fun oclSelect ( Int Bool) Int)
(declare-fun class15_Class15BoolAttr3 ( Int) Bool)
(declare-fun Enum0 ( Int) Int)
(declare-fun Enum1 ( Int) Int)
(declare-fun Enum2 ( Int) Int)
(declare-fun container_ ( Int) Int)
(declare-fun oclIncludes ( Int Int) Bool)
(declare-fun type_eb8ddc58_bc41_4733_a698_f353e5e206c5_Class15 ( Int) Bool)
(declare-fun ObjAt ( Int Int) Int)

;formula(s) generated
(assert (! (forall ((v Int)) (=> ( type_eb8ddc58_bc41_4733_a698_f353e5e206c5_Class15 v )  ( class15_Class15BoolAttr3 ( obj_1005e3a3_c76b_475e_8547_2453409a10b9 v )  ) )):named l0))
(assert (exists ((o Int)) ( type_eb8ddc58_bc41_4733_a698_f353e5e206c5_Class15 ( obj_1005e3a3_c76b_475e_8547_2453409a10b9 o )  ) ))

 ;end of formula 